Maximize
	- 3 x1 - 2 x2 + 1 x3 + 2 x4 - 1 x5 + 3 x6 
Maximize
	- 4 x1 + 5 x2 + 6 x3 + 3 x4 
Maximize
	+ 2 x1 + 5 x2 + 1 x4 - 1 x5 - 2 x6 
Subject To
	+ 4 x2 + 4 x3 - 2 x4 - 1 x5 + 4 x6 <= 10
Bounds
	0 <= x1 <= 4
	0 <= x2 <= 4
	0 <= x3 <= 4
	0 <= x4 <= 4
	0 <= x5 <= 4
	0 <= x6 <= 4
Integers
	x1 x2 x3 x4 x5 x6 
End